Route #1: 0 63 19 64 0
Route #2: 0 9 35 91 36 0
Route #3: 0 96 66 7 47 0
Route #4: 0 33 10 76 69 65 0
Route #5: 0 51 28 43 88 72 53 1 0
Route #6: 0 34 30 49 58 68 46 71 50 0
Route #7: 0 92 42 12 20 14 56 0
Route #8: 0 52 97 40 48 5 61 54 0
Route #9: 0 70 73 4 94 24 0
Route #10: 0 25 3 79 90 44 95 74 55 0
Route #11: 0 22 31 84 6 16 13 0
Route #12: 0 38 85 39 37 15 11 57 80 0
Route #13: 0 78 87 8 59 41 0
Route #14: 0 27 81 83 26 62 0
Route #15: 0 98 29 75 32 89 82 0
Route #16: 0 93 67 18 77 0
Route #17: 0 60 23 86 2 17 45 21 99 0
